NAME          FUSSOL
ROWS
 G  N
 G  AM-N
 G  NI-N
 G  UR-N
 G  P
 G  K
 G  S
 G  ZN
 G  WATR
 G  DEN
 E  HCAP
 E  HSOL
 E  HREA
 G  MINT
 G  MAXT
 G  32F
 G  77F
 G  32FK
 G  77FK
 E  WT
 N  COST
 N  PRICE
COLUMNS
*234567890123456789012345678901234567890123456789012345678901
    HOTWATER  WATR          1.000000   DEN           0.120048   
    HOTWATER  HCAP          1.000000   HREA          1.260000   
    HOTWATER  32F          -1.000000   77F          -1.000000   
    HOTWATER  32FK         -1.000000   77FK         -1.000000   
    HOTWATER  WT            1.000000   COST          0.250000   
    HOTWATER  PRICE         0.312500   SCALE      2000.000000   
    WATER     WATR          1.000000   DEN           0.120048   
    WATER     HCAP          1.000000   HSOL          0.400000   
    WATER     32F          -1.000000   77F          -1.000000   
    WATER     32FK         -1.000000   77FK         -1.000000   
    WATER     WT            1.000000   COST          0.050000   
    WATER     PRICE         0.062500   SCALE      2000.000000   
    I280000   N             0.280000   AM-N          0.070000   
    I280000   NI-N          0.070000   UR-N          0.140000   
    I280000   WATR          0.302000   DEN           0.092345   
    I280000   HCAP          0.554000   32F          -0.176887   
    I280000   77F          -0.297787   32FK          0.579186   
    I280000   77FK         -0.233809   WT            1.000000   
    I280000   COST         90.000000   PRICE       112.500000   
    I280000   SCALE      2000.000000   
    I320000   N             0.320000   AM-N          0.080000   
    I320000   NI-N          0.080000   UR-N          0.160000   
    I320000   WATR          0.200000   DEN           0.090262   
    I320000   HCAP          0.492000   32F          -0.107143   
    I320000   77F          -0.232982   32FK          0.632653   
    I320000   77FK         -0.126638   WT            1.000000   
    I320000   COST        102.000000   PRICE       127.500000   
    I320000   SCALE      2000.000000   
    I103400   N             0.100000   AM-N          0.100000   
    I103400   P             0.340000   WATR          0.423000   
    I103400   DEN           0.085749   HCAP          0.578000   
    I103400   32F          -0.022034   77F          -0.057190   
    I103400   32FK         -0.022034   77FK         -0.057190   
    I103400   WT            1.000000   COST        190.000000   
    I103400   PRICE       237.500000   SCALE      2000.000000   
    I000062   K             0.624000   DEN           0.060024   
    I000062   HCAP          0.162000   HSOL          2.120000   
    I000062   32F           3.424780   77F           2.690040   
    I000062   32FK          3.424780   77FK          2.690040   
    I000062   WT            1.000000   COST         90.000000   
    I000062   PRICE       112.500000   SCALE      2000.000000   
    I000025   K             0.250000   S             0.170000   
    I000025   WATR          0.510000   DEN           0.082225   
    I000025   HCAP          0.600000   32F          -0.014085   
    I000025   77F          -0.195402   32FK         -0.014085   
    I000025   77FK         -0.195402   WT            1.000000   
    I000025   COST        300.000000   PRICE       400.000000   
    I000025   SCALE      2000.000000   
    I120000   N             0.120000   AM-N          0.120000   
    I120000   S             0.260000   WATR          0.400000   
    I120000   DEN           0.090262   HCAP          0.440000   
    I120000   32F           0.005025   77F          -0.104478   
    I120000   32FK          0.005025   77FK         -0.104478   
    I120000   WT            1.000000   COST        135.000000   
    I120000   PRICE       168.750000   SCALE      2000.000000   
    I100000   N             0.100000   AM-N          0.100000   
    I100000   S             0.050000   ZN            0.100000   
    I100000   WATR          0.630000   DEN           0.094526   
    I100000   HCAP          0.740000   77F          -0.119048   
    I100000   77FK         -0.119048   WT            1.000000   
    I100000   COST        190.000000   PRICE       237.500000   
    I100000   SCALE      2000.000000   
    LASSO     WATR          0.995490   DEN           0.112360   
    LASSO     WT            1.000000   COST          5.625000   
    LASSO     PRICE         6.625000   SCALE         2.225000   
    SQUADRON  WATR          0.997430   DEN           0.112994   
    SQUADRON  WT            1.000000   COST          5.000000   
    SQUADRON  PRICE         5.887500   SCALE         1.106300   
    HEATCAP   HCAP         -1.000000   MINT          0.150000   
    HEATCAP   MAXT          0.800000   COST          0.000000   
    HEATCAP   PRICE         0.000000   SCALE         1.000000   
    HEATSOL   HSOL         -2.000000   MINT         -1.000000   
    HEATSOL   MAXT          1.000000   COST          0.000000   
    HEATSOL   PRICE         0.000000   SCALE         1.000000   
    HEATREA   HREA         -2.000000   MINT          1.000000   
    HEATREA   MAXT         -1.000000   COST          0.000000   
    HEATREA   PRICE         0.000000   SCALE         1.000000   
    EVAP      WATR         -1.000000   DEN          -0.120048   
    EVAP      HCAP         -1.000000   HSOL         -0.400000   
    EVAP      32F           1.000000   77F           1.000000   
    EVAP      32FK          1.000000   77FK          1.000000   
    EVAP      WT           -1.000000   COST          0.000100   
    EVAP      PRICE         0.000100   SCALE      2000.000000   
    PRODUCT   WT           -1.000000   COST          0.000000   
    PRODUCT   PRICE         0.000000   SCALE         1.000000   
*234567890123456789012345678901234567890123456789012345678901
RHS
RANGES
ENDATA
